% Generated by MiniZinc 2.9.3
% Solver library: /home/icwmmarijnisse/Pumpkin/minizinc/lib
% Command line invocation: minizinc --compile --fzn ./instance.fzn --ozn ./instance.ozn --solver pumpkin ../../../../benchmarks/models/rcpsp/rcpsp.mzn ../../../../benchmarks/models/rcpsp/J90_26_2.dzn 

predicate pumpkin_cumulative(array [int] of var int: s,array [int] of int: d,array [int] of int: r,int: b);
array [1..2] of int: X_INTRODUCED_109_ = [1,-1];
array [1..69] of int: X_INTRODUCED_196_ = [10,1,9,9,10,9,4,4,8,6,1,6,1,9,6,8,2,6,7,2,5,8,1,9,2,6,10,10,5,1,4,1,6,10,8,5,6,6,10,2,6,6,3,6,6,6,6,2,8,4,1,10,9,4,5,10,3,6,3,7,7,1,2,7,9,8,10,1,5];
array [1..69] of int: X_INTRODUCED_197_ = [5,8,6,10,10,7,7,2,1,8,8,9,4,7,9,10,8,4,9,8,9,2,9,4,9,3,4,7,6,4,4,2,7,8,9,5,1,10,3,9,10,8,9,10,7,5,4,9,4,4,1,9,4,8,3,6,6,4,5,9,3,9,1,8,1,3,1,9,8];
array [1..71] of int: X_INTRODUCED_199_ = [5,2,7,1,9,1,8,1,2,7,6,1,1,2,9,6,5,5,10,4,8,7,1,2,2,5,4,1,4,7,4,9,8,6,10,4,6,7,3,7,9,6,7,5,7,2,1,7,2,3,6,7,5,2,4,7,3,5,3,5,7,3,3,3,2,7,7,3,1,7,6];
array [1..71] of int: X_INTRODUCED_200_ = [2,8,10,10,2,1,8,4,10,8,9,7,9,10,2,4,8,4,9,8,9,2,4,9,4,6,4,4,4,2,7,8,9,10,5,1,1,10,3,9,9,10,10,9,10,7,3,5,9,5,8,4,1,9,8,6,6,6,4,2,9,1,8,7,1,4,2,3,1,9,8];
array [1..68] of int: X_INTRODUCED_202_ = [1,3,7,3,9,8,1,7,3,7,9,6,9,6,2,3,9,9,3,10,2,3,3,10,8,10,4,2,3,4,6,2,6,2,8,3,7,1,2,1,2,7,5,2,6,8,8,9,3,6,10,7,4,10,6,9,4,7,9,1,8,2,7,1,8,1,3,5];
array [1..68] of int: X_INTRODUCED_203_ = [2,8,6,10,10,7,7,2,8,4,10,9,4,7,9,10,2,4,9,8,2,9,9,3,4,7,6,4,4,4,2,10,1,1,3,9,9,10,8,10,10,7,5,9,5,4,8,4,1,9,4,8,2,6,6,6,4,5,9,2,3,1,8,8,1,2,3,8];
array [1..63] of int: X_INTRODUCED_205_ = [7,2,2,5,8,3,6,6,8,2,5,8,8,8,1,9,8,3,2,8,7,10,3,2,4,5,8,6,7,10,8,9,10,8,1,10,10,8,2,8,3,7,3,4,6,5,7,10,5,8,7,2,8,5,1,6,4,8,9,1,6,5,2];
array [1..63] of int: X_INTRODUCED_206_ = [2,8,6,7,1,8,4,10,8,4,7,9,10,2,4,6,8,4,9,8,9,2,4,9,4,7,4,4,4,2,7,8,1,10,3,10,8,10,9,7,4,9,4,8,4,9,4,3,2,6,6,4,9,2,9,1,8,8,1,4,2,1,9];
array [1..2] of int: X_INTRODUCED_210_ = [1,-1];
var 0..531: X_INTRODUCED_16_;
var 0..531: X_INTRODUCED_17_;
var 0..531: X_INTRODUCED_18_;
var 0..531: X_INTRODUCED_19_;
var 0..531: X_INTRODUCED_20_;
var 0..531: X_INTRODUCED_21_;
var 0..531: X_INTRODUCED_22_;
var 0..531: X_INTRODUCED_23_;
var 0..531: X_INTRODUCED_24_;
var 0..531: X_INTRODUCED_25_;
var 0..531: X_INTRODUCED_26_;
var 0..531: X_INTRODUCED_27_;
var 0..531: X_INTRODUCED_28_;
var 0..531: X_INTRODUCED_29_;
var 0..531: X_INTRODUCED_30_;
var 0..531: X_INTRODUCED_31_;
var 0..531: X_INTRODUCED_32_;
var 0..531: X_INTRODUCED_33_;
var 0..531: X_INTRODUCED_34_;
var 0..531: X_INTRODUCED_35_;
var 0..531: X_INTRODUCED_36_;
var 0..531: X_INTRODUCED_37_;
var 0..531: X_INTRODUCED_38_;
var 0..531: X_INTRODUCED_39_;
var 0..531: X_INTRODUCED_40_;
var 0..531: X_INTRODUCED_41_;
var 0..531: X_INTRODUCED_42_;
var 0..531: X_INTRODUCED_43_;
var 0..531: X_INTRODUCED_44_;
var 0..531: X_INTRODUCED_45_;
var 0..531: X_INTRODUCED_46_;
var 0..531: X_INTRODUCED_47_;
var 0..531: X_INTRODUCED_48_;
var 0..531: X_INTRODUCED_49_;
var 0..531: X_INTRODUCED_50_;
var 0..531: X_INTRODUCED_51_;
var 0..531: X_INTRODUCED_52_;
var 0..531: X_INTRODUCED_53_;
var 0..531: X_INTRODUCED_54_;
var 0..531: X_INTRODUCED_55_;
var 0..531: X_INTRODUCED_56_;
var 0..531: X_INTRODUCED_57_;
var 0..531: X_INTRODUCED_58_;
var 0..531: X_INTRODUCED_59_;
var 0..531: X_INTRODUCED_60_;
var 0..531: X_INTRODUCED_61_;
var 0..531: X_INTRODUCED_62_;
var 0..531: X_INTRODUCED_63_;
var 0..531: X_INTRODUCED_64_;
var 0..531: X_INTRODUCED_65_;
var 0..531: X_INTRODUCED_66_;
var 0..531: X_INTRODUCED_67_;
var 0..531: X_INTRODUCED_68_;
var 0..531: X_INTRODUCED_69_;
var 0..531: X_INTRODUCED_70_;
var 0..531: X_INTRODUCED_71_;
var 0..531: X_INTRODUCED_72_;
var 0..531: X_INTRODUCED_73_;
var 0..531: X_INTRODUCED_74_;
var 0..531: X_INTRODUCED_75_;
var 0..531: X_INTRODUCED_76_;
var 0..531: X_INTRODUCED_77_;
var 0..531: X_INTRODUCED_78_;
var 0..531: X_INTRODUCED_79_;
var 0..531: X_INTRODUCED_80_;
var 0..531: X_INTRODUCED_81_;
var 0..531: X_INTRODUCED_82_;
var 0..531: X_INTRODUCED_83_;
var 0..531: X_INTRODUCED_84_;
var 0..531: X_INTRODUCED_85_;
var 0..531: X_INTRODUCED_86_;
var 0..531: X_INTRODUCED_87_;
var 0..531: X_INTRODUCED_88_;
var 0..531: X_INTRODUCED_89_;
var 0..531: X_INTRODUCED_90_;
var 0..531: X_INTRODUCED_91_;
var 0..531: X_INTRODUCED_92_;
var 0..531: X_INTRODUCED_93_;
var 0..531: X_INTRODUCED_94_;
var 0..531: X_INTRODUCED_95_;
var 0..531: X_INTRODUCED_96_;
var 0..531: X_INTRODUCED_97_;
var 0..531: X_INTRODUCED_98_;
var 0..531: X_INTRODUCED_99_;
var 0..531: X_INTRODUCED_100_;
var 0..531: X_INTRODUCED_101_;
var 0..531: X_INTRODUCED_102_;
var 0..531: X_INTRODUCED_103_;
var 0..531: X_INTRODUCED_104_;
var 0..531: X_INTRODUCED_105_;
var 0..532: Objective:: output_var;
array [1..90] of var int: Start:: output_array([1..90]) = [X_INTRODUCED_16_,X_INTRODUCED_17_,X_INTRODUCED_18_,X_INTRODUCED_19_,X_INTRODUCED_20_,X_INTRODUCED_21_,X_INTRODUCED_22_,X_INTRODUCED_23_,X_INTRODUCED_24_,X_INTRODUCED_25_,X_INTRODUCED_26_,X_INTRODUCED_27_,X_INTRODUCED_28_,X_INTRODUCED_29_,X_INTRODUCED_30_,X_INTRODUCED_31_,X_INTRODUCED_32_,X_INTRODUCED_33_,X_INTRODUCED_34_,X_INTRODUCED_35_,X_INTRODUCED_36_,X_INTRODUCED_37_,X_INTRODUCED_38_,X_INTRODUCED_39_,X_INTRODUCED_40_,X_INTRODUCED_41_,X_INTRODUCED_42_,X_INTRODUCED_43_,X_INTRODUCED_44_,X_INTRODUCED_45_,X_INTRODUCED_46_,X_INTRODUCED_47_,X_INTRODUCED_48_,X_INTRODUCED_49_,X_INTRODUCED_50_,X_INTRODUCED_51_,X_INTRODUCED_52_,X_INTRODUCED_53_,X_INTRODUCED_54_,X_INTRODUCED_55_,X_INTRODUCED_56_,X_INTRODUCED_57_,X_INTRODUCED_58_,X_INTRODUCED_59_,X_INTRODUCED_60_,X_INTRODUCED_61_,X_INTRODUCED_62_,X_INTRODUCED_63_,X_INTRODUCED_64_,X_INTRODUCED_65_,X_INTRODUCED_66_,X_INTRODUCED_67_,X_INTRODUCED_68_,X_INTRODUCED_69_,X_INTRODUCED_70_,X_INTRODUCED_71_,X_INTRODUCED_72_,X_INTRODUCED_73_,X_INTRODUCED_74_,X_INTRODUCED_75_,X_INTRODUCED_76_,X_INTRODUCED_77_,X_INTRODUCED_78_,X_INTRODUCED_79_,X_INTRODUCED_80_,X_INTRODUCED_81_,X_INTRODUCED_82_,X_INTRODUCED_83_,X_INTRODUCED_84_,X_INTRODUCED_85_,X_INTRODUCED_86_,X_INTRODUCED_87_,X_INTRODUCED_88_,X_INTRODUCED_89_,X_INTRODUCED_90_,X_INTRODUCED_91_,X_INTRODUCED_92_,X_INTRODUCED_93_,X_INTRODUCED_94_,X_INTRODUCED_95_,X_INTRODUCED_96_,X_INTRODUCED_97_,X_INTRODUCED_98_,X_INTRODUCED_99_,X_INTRODUCED_100_,X_INTRODUCED_101_,X_INTRODUCED_102_,X_INTRODUCED_103_,X_INTRODUCED_104_,X_INTRODUCED_105_];
array [1..69] of var int: X_INTRODUCED_198_ ::var_is_introduced  = [X_INTRODUCED_16_,X_INTRODUCED_18_,X_INTRODUCED_19_,X_INTRODUCED_20_,X_INTRODUCED_21_,X_INTRODUCED_22_,X_INTRODUCED_23_,X_INTRODUCED_24_,X_INTRODUCED_25_,X_INTRODUCED_26_,X_INTRODUCED_29_,X_INTRODUCED_30_,X_INTRODUCED_31_,X_INTRODUCED_32_,X_INTRODUCED_33_,X_INTRODUCED_34_,X_INTRODUCED_38_,X_INTRODUCED_39_,X_INTRODUCED_40_,X_INTRODUCED_41_,X_INTRODUCED_42_,X_INTRODUCED_43_,X_INTRODUCED_44_,X_INTRODUCED_45_,X_INTRODUCED_46_,X_INTRODUCED_47_,X_INTRODUCED_48_,X_INTRODUCED_49_,X_INTRODUCED_50_,X_INTRODUCED_51_,X_INTRODUCED_53_,X_INTRODUCED_54_,X_INTRODUCED_55_,X_INTRODUCED_56_,X_INTRODUCED_57_,X_INTRODUCED_59_,X_INTRODUCED_60_,X_INTRODUCED_62_,X_INTRODUCED_63_,X_INTRODUCED_65_,X_INTRODUCED_66_,X_INTRODUCED_67_,X_INTRODUCED_69_,X_INTRODUCED_70_,X_INTRODUCED_71_,X_INTRODUCED_73_,X_INTRODUCED_74_,X_INTRODUCED_75_,X_INTRODUCED_77_,X_INTRODUCED_79_,X_INTRODUCED_80_,X_INTRODUCED_81_,X_INTRODUCED_82_,X_INTRODUCED_83_,X_INTRODUCED_84_,X_INTRODUCED_86_,X_INTRODUCED_88_,X_INTRODUCED_89_,X_INTRODUCED_90_,X_INTRODUCED_91_,X_INTRODUCED_93_,X_INTRODUCED_94_,X_INTRODUCED_95_,X_INTRODUCED_98_,X_INTRODUCED_99_,X_INTRODUCED_102_,X_INTRODUCED_103_,X_INTRODUCED_104_,X_INTRODUCED_105_];
array [1..71] of var int: X_INTRODUCED_201_ ::var_is_introduced  = [X_INTRODUCED_17_,X_INTRODUCED_18_,X_INTRODUCED_20_,X_INTRODUCED_21_,X_INTRODUCED_24_,X_INTRODUCED_25_,X_INTRODUCED_26_,X_INTRODUCED_27_,X_INTRODUCED_28_,X_INTRODUCED_29_,X_INTRODUCED_30_,X_INTRODUCED_32_,X_INTRODUCED_33_,X_INTRODUCED_34_,X_INTRODUCED_35_,X_INTRODUCED_36_,X_INTRODUCED_38_,X_INTRODUCED_39_,X_INTRODUCED_40_,X_INTRODUCED_41_,X_INTRODUCED_42_,X_INTRODUCED_43_,X_INTRODUCED_45_,X_INTRODUCED_46_,X_INTRODUCED_48_,X_INTRODUCED_50_,X_INTRODUCED_51_,X_INTRODUCED_52_,X_INTRODUCED_53_,X_INTRODUCED_54_,X_INTRODUCED_55_,X_INTRODUCED_56_,X_INTRODUCED_57_,X_INTRODUCED_58_,X_INTRODUCED_59_,X_INTRODUCED_60_,X_INTRODUCED_61_,X_INTRODUCED_62_,X_INTRODUCED_63_,X_INTRODUCED_64_,X_INTRODUCED_65_,X_INTRODUCED_66_,X_INTRODUCED_68_,X_INTRODUCED_69_,X_INTRODUCED_70_,X_INTRODUCED_71_,X_INTRODUCED_72_,X_INTRODUCED_73_,X_INTRODUCED_75_,X_INTRODUCED_76_,X_INTRODUCED_78_,X_INTRODUCED_79_,X_INTRODUCED_80_,X_INTRODUCED_81_,X_INTRODUCED_83_,X_INTRODUCED_86_,X_INTRODUCED_87_,X_INTRODUCED_88_,X_INTRODUCED_89_,X_INTRODUCED_92_,X_INTRODUCED_94_,X_INTRODUCED_95_,X_INTRODUCED_96_,X_INTRODUCED_97_,X_INTRODUCED_99_,X_INTRODUCED_100_,X_INTRODUCED_101_,X_INTRODUCED_102_,X_INTRODUCED_103_,X_INTRODUCED_104_,X_INTRODUCED_105_];
array [1..68] of var int: X_INTRODUCED_204_ ::var_is_introduced  = [X_INTRODUCED_17_,X_INTRODUCED_18_,X_INTRODUCED_19_,X_INTRODUCED_20_,X_INTRODUCED_21_,X_INTRODUCED_22_,X_INTRODUCED_23_,X_INTRODUCED_24_,X_INTRODUCED_26_,X_INTRODUCED_27_,X_INTRODUCED_28_,X_INTRODUCED_30_,X_INTRODUCED_31_,X_INTRODUCED_32_,X_INTRODUCED_33_,X_INTRODUCED_34_,X_INTRODUCED_35_,X_INTRODUCED_39_,X_INTRODUCED_40_,X_INTRODUCED_41_,X_INTRODUCED_43_,X_INTRODUCED_44_,X_INTRODUCED_46_,X_INTRODUCED_47_,X_INTRODUCED_48_,X_INTRODUCED_49_,X_INTRODUCED_50_,X_INTRODUCED_51_,X_INTRODUCED_52_,X_INTRODUCED_53_,X_INTRODUCED_54_,X_INTRODUCED_58_,X_INTRODUCED_60_,X_INTRODUCED_61_,X_INTRODUCED_63_,X_INTRODUCED_64_,X_INTRODUCED_65_,X_INTRODUCED_66_,X_INTRODUCED_67_,X_INTRODUCED_68_,X_INTRODUCED_70_,X_INTRODUCED_71_,X_INTRODUCED_73_,X_INTRODUCED_75_,X_INTRODUCED_76_,X_INTRODUCED_77_,X_INTRODUCED_78_,X_INTRODUCED_79_,X_INTRODUCED_80_,X_INTRODUCED_81_,X_INTRODUCED_82_,X_INTRODUCED_83_,X_INTRODUCED_85_,X_INTRODUCED_86_,X_INTRODUCED_87_,X_INTRODUCED_88_,X_INTRODUCED_89_,X_INTRODUCED_90_,X_INTRODUCED_91_,X_INTRODUCED_92_,X_INTRODUCED_93_,X_INTRODUCED_95_,X_INTRODUCED_96_,X_INTRODUCED_98_,X_INTRODUCED_99_,X_INTRODUCED_101_,X_INTRODUCED_102_,X_INTRODUCED_105_];
array [1..63] of var int: X_INTRODUCED_207_ ::var_is_introduced  = [X_INTRODUCED_17_,X_INTRODUCED_18_,X_INTRODUCED_19_,X_INTRODUCED_22_,X_INTRODUCED_25_,X_INTRODUCED_26_,X_INTRODUCED_27_,X_INTRODUCED_28_,X_INTRODUCED_29_,X_INTRODUCED_31_,X_INTRODUCED_32_,X_INTRODUCED_33_,X_INTRODUCED_34_,X_INTRODUCED_35_,X_INTRODUCED_36_,X_INTRODUCED_37_,X_INTRODUCED_38_,X_INTRODUCED_39_,X_INTRODUCED_40_,X_INTRODUCED_41_,X_INTRODUCED_42_,X_INTRODUCED_43_,X_INTRODUCED_45_,X_INTRODUCED_46_,X_INTRODUCED_48_,X_INTRODUCED_49_,X_INTRODUCED_51_,X_INTRODUCED_52_,X_INTRODUCED_53_,X_INTRODUCED_54_,X_INTRODUCED_55_,X_INTRODUCED_56_,X_INTRODUCED_61_,X_INTRODUCED_62_,X_INTRODUCED_63_,X_INTRODUCED_66_,X_INTRODUCED_67_,X_INTRODUCED_68_,X_INTRODUCED_69_,X_INTRODUCED_71_,X_INTRODUCED_74_,X_INTRODUCED_75_,X_INTRODUCED_77_,X_INTRODUCED_78_,X_INTRODUCED_79_,X_INTRODUCED_81_,X_INTRODUCED_82_,X_INTRODUCED_84_,X_INTRODUCED_85_,X_INTRODUCED_87_,X_INTRODUCED_88_,X_INTRODUCED_89_,X_INTRODUCED_91_,X_INTRODUCED_92_,X_INTRODUCED_94_,X_INTRODUCED_95_,X_INTRODUCED_96_,X_INTRODUCED_98_,X_INTRODUCED_99_,X_INTRODUCED_100_,X_INTRODUCED_101_,X_INTRODUCED_103_,X_INTRODUCED_104_];
array [1..91] of var int: X_INTRODUCED_213_ ::var_is_introduced  = [X_INTRODUCED_16_,X_INTRODUCED_17_,X_INTRODUCED_18_,X_INTRODUCED_19_,X_INTRODUCED_20_,X_INTRODUCED_21_,X_INTRODUCED_22_,X_INTRODUCED_23_,X_INTRODUCED_24_,X_INTRODUCED_25_,X_INTRODUCED_26_,X_INTRODUCED_27_,X_INTRODUCED_28_,X_INTRODUCED_29_,X_INTRODUCED_30_,X_INTRODUCED_31_,X_INTRODUCED_32_,X_INTRODUCED_33_,X_INTRODUCED_34_,X_INTRODUCED_35_,X_INTRODUCED_36_,X_INTRODUCED_37_,X_INTRODUCED_38_,X_INTRODUCED_39_,X_INTRODUCED_40_,X_INTRODUCED_41_,X_INTRODUCED_42_,X_INTRODUCED_43_,X_INTRODUCED_44_,X_INTRODUCED_45_,X_INTRODUCED_46_,X_INTRODUCED_47_,X_INTRODUCED_48_,X_INTRODUCED_49_,X_INTRODUCED_50_,X_INTRODUCED_51_,X_INTRODUCED_52_,X_INTRODUCED_53_,X_INTRODUCED_54_,X_INTRODUCED_55_,X_INTRODUCED_56_,X_INTRODUCED_57_,X_INTRODUCED_58_,X_INTRODUCED_59_,X_INTRODUCED_60_,X_INTRODUCED_61_,X_INTRODUCED_62_,X_INTRODUCED_63_,X_INTRODUCED_64_,X_INTRODUCED_65_,X_INTRODUCED_66_,X_INTRODUCED_67_,X_INTRODUCED_68_,X_INTRODUCED_69_,X_INTRODUCED_70_,X_INTRODUCED_71_,X_INTRODUCED_72_,X_INTRODUCED_73_,X_INTRODUCED_74_,X_INTRODUCED_75_,X_INTRODUCED_76_,X_INTRODUCED_77_,X_INTRODUCED_78_,X_INTRODUCED_79_,X_INTRODUCED_80_,X_INTRODUCED_81_,X_INTRODUCED_82_,X_INTRODUCED_83_,X_INTRODUCED_84_,X_INTRODUCED_85_,X_INTRODUCED_86_,X_INTRODUCED_87_,X_INTRODUCED_88_,X_INTRODUCED_89_,X_INTRODUCED_90_,X_INTRODUCED_91_,X_INTRODUCED_92_,X_INTRODUCED_93_,X_INTRODUCED_94_,X_INTRODUCED_95_,X_INTRODUCED_96_,X_INTRODUCED_97_,X_INTRODUCED_98_,X_INTRODUCED_99_,X_INTRODUCED_100_,X_INTRODUCED_101_,X_INTRODUCED_102_,X_INTRODUCED_103_,X_INTRODUCED_104_,X_INTRODUCED_105_,Objective];
constraint int_lin_le(X_INTRODUCED_109_,[X_INTRODUCED_16_,X_INTRODUCED_20_],-5);
constraint int_lin_le(X_INTRODUCED_109_,[X_INTRODUCED_16_,X_INTRODUCED_25_],-5);
constraint int_lin_le(X_INTRODUCED_109_,[X_INTRODUCED_16_,X_INTRODUCED_51_],-5);
constraint int_lin_le(X_INTRODUCED_109_,[X_INTRODUCED_17_,X_INTRODUCED_19_],-2);
constraint int_lin_le(X_INTRODUCED_109_,[X_INTRODUCED_17_,X_INTRODUCED_27_],-2);
constraint int_lin_le(X_INTRODUCED_109_,[X_INTRODUCED_17_,X_INTRODUCED_32_],-2);
constraint int_lin_le(X_INTRODUCED_109_,[X_INTRODUCED_18_,X_INTRODUCED_21_],-8);
constraint int_lin_le(X_INTRODUCED_109_,[X_INTRODUCED_18_,X_INTRODUCED_56_],-8);
constraint int_lin_le(X_INTRODUCED_109_,[X_INTRODUCED_18_,X_INTRODUCED_80_],-8);
constraint int_lin_le(X_INTRODUCED_109_,[X_INTRODUCED_19_,X_INTRODUCED_23_],-6);
constraint int_lin_le(X_INTRODUCED_109_,[X_INTRODUCED_19_,X_INTRODUCED_66_],-6);
constraint int_lin_le(X_INTRODUCED_109_,[X_INTRODUCED_20_,X_INTRODUCED_46_],-10);
constraint int_lin_le(X_INTRODUCED_109_,[X_INTRODUCED_21_,X_INTRODUCED_22_],-10);
constraint int_lin_le(X_INTRODUCED_109_,[X_INTRODUCED_21_,X_INTRODUCED_38_],-10);
constraint int_lin_le(X_INTRODUCED_109_,[X_INTRODUCED_21_,X_INTRODUCED_40_],-10);
constraint int_lin_le(X_INTRODUCED_109_,[X_INTRODUCED_22_,X_INTRODUCED_24_],-7);
constraint int_lin_le(X_INTRODUCED_109_,[X_INTRODUCED_22_,X_INTRODUCED_26_],-7);
constraint int_lin_le(X_INTRODUCED_109_,[X_INTRODUCED_22_,X_INTRODUCED_31_],-7);
constraint int_lin_le(X_INTRODUCED_109_,[X_INTRODUCED_23_,X_INTRODUCED_29_],-7);
constraint int_lin_le(X_INTRODUCED_109_,[X_INTRODUCED_23_,X_INTRODUCED_30_],-7);
constraint int_lin_le(X_INTRODUCED_109_,[X_INTRODUCED_23_,X_INTRODUCED_34_],-7);
constraint int_lin_le(X_INTRODUCED_109_,[X_INTRODUCED_24_,X_INTRODUCED_41_],-2);
constraint int_lin_le(X_INTRODUCED_109_,[X_INTRODUCED_24_,X_INTRODUCED_63_],-2);
constraint int_lin_le(X_INTRODUCED_109_,[X_INTRODUCED_24_,X_INTRODUCED_76_],-2);
constraint int_lin_le(X_INTRODUCED_109_,[X_INTRODUCED_25_,X_INTRODUCED_33_],-1);
constraint int_lin_le(X_INTRODUCED_109_,[X_INTRODUCED_25_,X_INTRODUCED_48_],-1);
constraint int_lin_le(X_INTRODUCED_109_,[X_INTRODUCED_25_,X_INTRODUCED_55_],-1);
constraint int_lin_le(X_INTRODUCED_109_,[X_INTRODUCED_26_,X_INTRODUCED_35_],-8);
constraint int_lin_le(X_INTRODUCED_109_,[X_INTRODUCED_26_,X_INTRODUCED_49_],-8);
constraint int_lin_le(X_INTRODUCED_109_,[X_INTRODUCED_26_,X_INTRODUCED_73_],-8);
constraint int_lin_le(X_INTRODUCED_109_,[X_INTRODUCED_27_,X_INTRODUCED_28_],-4);
constraint int_lin_le(X_INTRODUCED_109_,[X_INTRODUCED_27_,X_INTRODUCED_78_],-4);
constraint int_lin_le(X_INTRODUCED_109_,[X_INTRODUCED_27_,X_INTRODUCED_84_],-4);
constraint int_lin_le(X_INTRODUCED_109_,[X_INTRODUCED_28_,X_INTRODUCED_41_],-10);
constraint int_lin_le(X_INTRODUCED_109_,[X_INTRODUCED_28_,X_INTRODUCED_71_],-10);
constraint int_lin_le(X_INTRODUCED_109_,[X_INTRODUCED_29_,X_INTRODUCED_39_],-8);
constraint int_lin_le(X_INTRODUCED_109_,[X_INTRODUCED_29_,X_INTRODUCED_44_],-8);
constraint int_lin_le(X_INTRODUCED_109_,[X_INTRODUCED_29_,X_INTRODUCED_61_],-8);
constraint int_lin_le(X_INTRODUCED_109_,[X_INTRODUCED_30_,X_INTRODUCED_43_],-9);
constraint int_lin_le(X_INTRODUCED_109_,[X_INTRODUCED_31_,X_INTRODUCED_42_],-4);
constraint int_lin_le(X_INTRODUCED_109_,[X_INTRODUCED_31_,X_INTRODUCED_70_],-4);
constraint int_lin_le(X_INTRODUCED_109_,[X_INTRODUCED_31_,X_INTRODUCED_82_],-4);
constraint int_lin_le(X_INTRODUCED_109_,[X_INTRODUCED_32_,X_INTRODUCED_63_],-7);
constraint int_lin_le(X_INTRODUCED_109_,[X_INTRODUCED_32_,X_INTRODUCED_97_],-7);
constraint int_lin_le(X_INTRODUCED_109_,[X_INTRODUCED_32_,X_INTRODUCED_103_],-7);
constraint int_lin_le(X_INTRODUCED_109_,[X_INTRODUCED_33_,X_INTRODUCED_45_],-9);
constraint int_lin_le(X_INTRODUCED_109_,[X_INTRODUCED_33_,X_INTRODUCED_60_],-9);
constraint int_lin_le(X_INTRODUCED_109_,[X_INTRODUCED_33_,X_INTRODUCED_103_],-9);
constraint int_lin_le(X_INTRODUCED_109_,[X_INTRODUCED_34_,X_INTRODUCED_37_],-10);
constraint int_lin_le(X_INTRODUCED_109_,[X_INTRODUCED_35_,X_INTRODUCED_36_],-2);
constraint int_lin_le(X_INTRODUCED_109_,[X_INTRODUCED_35_,X_INTRODUCED_52_],-2);
constraint int_lin_le(X_INTRODUCED_109_,[X_INTRODUCED_35_,X_INTRODUCED_60_],-2);
constraint int_lin_le(X_INTRODUCED_109_,[X_INTRODUCED_36_,X_INTRODUCED_70_],-4);
constraint int_lin_le(X_INTRODUCED_109_,[X_INTRODUCED_37_,X_INTRODUCED_51_],-6);
constraint int_lin_le(X_INTRODUCED_109_,[X_INTRODUCED_37_,X_INTRODUCED_53_],-6);
constraint int_lin_le(X_INTRODUCED_109_,[X_INTRODUCED_37_,X_INTRODUCED_87_],-6);
constraint int_lin_le(X_INTRODUCED_109_,[X_INTRODUCED_38_,X_INTRODUCED_53_],-8);
constraint int_lin_le(X_INTRODUCED_109_,[X_INTRODUCED_38_,X_INTRODUCED_73_],-8);
constraint int_lin_le(X_INTRODUCED_109_,[X_INTRODUCED_39_,X_INTRODUCED_75_],-4);
constraint int_lin_le(X_INTRODUCED_109_,[X_INTRODUCED_40_,X_INTRODUCED_47_],-9);
constraint int_lin_le(X_INTRODUCED_109_,[X_INTRODUCED_40_,X_INTRODUCED_81_],-9);
constraint int_lin_le(X_INTRODUCED_109_,[X_INTRODUCED_41_,X_INTRODUCED_50_],-8);
constraint int_lin_le(X_INTRODUCED_109_,[X_INTRODUCED_41_,X_INTRODUCED_59_],-8);
constraint int_lin_le(X_INTRODUCED_109_,[X_INTRODUCED_42_,X_INTRODUCED_92_],-9);
constraint int_lin_le(X_INTRODUCED_109_,[X_INTRODUCED_43_,X_INTRODUCED_70_],-2);
constraint int_lin_le(X_INTRODUCED_109_,[X_INTRODUCED_43_,X_INTRODUCED_86_],-2);
constraint int_lin_le(X_INTRODUCED_109_,[X_INTRODUCED_44_,X_INTRODUCED_74_],-9);
constraint int_lin_le(X_INTRODUCED_109_,[X_INTRODUCED_45_,X_INTRODUCED_72_],-4);
constraint int_lin_le(X_INTRODUCED_109_,[X_INTRODUCED_46_,X_INTRODUCED_54_],-9);
constraint int_lin_le(X_INTRODUCED_109_,[X_INTRODUCED_46_,X_INTRODUCED_59_],-9);
constraint int_lin_le(X_INTRODUCED_109_,[X_INTRODUCED_46_,X_INTRODUCED_91_],-9);
constraint int_lin_le(X_INTRODUCED_109_,[X_INTRODUCED_47_,X_INTRODUCED_69_],-3);
constraint int_lin_le(X_INTRODUCED_109_,[X_INTRODUCED_47_,X_INTRODUCED_74_],-3);
constraint int_lin_le(X_INTRODUCED_109_,[X_INTRODUCED_48_,X_INTRODUCED_65_],-4);
constraint int_lin_le(X_INTRODUCED_109_,[X_INTRODUCED_48_,X_INTRODUCED_99_],-4);
constraint int_lin_le(X_INTRODUCED_109_,[X_INTRODUCED_49_,X_INTRODUCED_99_],-7);
constraint int_lin_le(X_INTRODUCED_109_,[X_INTRODUCED_50_,X_INTRODUCED_52_],-6);
constraint int_lin_le(X_INTRODUCED_109_,[X_INTRODUCED_50_,X_INTRODUCED_57_],-6);
constraint int_lin_le(X_INTRODUCED_109_,[X_INTRODUCED_51_,X_INTRODUCED_72_],-4);
constraint int_lin_le(X_INTRODUCED_109_,[X_INTRODUCED_52_,X_INTRODUCED_53_],-4);
constraint int_lin_le(X_INTRODUCED_109_,[X_INTRODUCED_52_,X_INTRODUCED_85_],-4);
constraint int_lin_le(X_INTRODUCED_109_,[X_INTRODUCED_53_,X_INTRODUCED_92_],-4);
constraint int_lin_le(X_INTRODUCED_109_,[X_INTRODUCED_54_,X_INTRODUCED_63_],-2);
constraint int_lin_le(X_INTRODUCED_109_,[X_INTRODUCED_54_,X_INTRODUCED_67_],-2);
constraint int_lin_le(X_INTRODUCED_109_,[X_INTRODUCED_54_,X_INTRODUCED_76_],-2);
constraint int_lin_le(X_INTRODUCED_109_,[X_INTRODUCED_55_,X_INTRODUCED_67_],-7);
constraint int_lin_le(X_INTRODUCED_109_,[X_INTRODUCED_55_,X_INTRODUCED_79_],-7);
constraint int_lin_le(X_INTRODUCED_109_,[X_INTRODUCED_56_,X_INTRODUCED_58_],-8);
constraint int_lin_le(X_INTRODUCED_109_,[X_INTRODUCED_56_,X_INTRODUCED_79_],-8);
constraint int_lin_le(X_INTRODUCED_109_,[X_INTRODUCED_57_,X_INTRODUCED_62_],-9);
constraint int_lin_le(X_INTRODUCED_109_,[X_INTRODUCED_57_,X_INTRODUCED_64_],-9);
constraint int_lin_le(X_INTRODUCED_109_,[X_INTRODUCED_58_,X_INTRODUCED_72_],-10);
constraint int_lin_le(X_INTRODUCED_109_,[X_INTRODUCED_59_,X_INTRODUCED_64_],-5);
constraint int_lin_le(X_INTRODUCED_109_,[X_INTRODUCED_59_,X_INTRODUCED_81_],-5);
constraint int_lin_le(X_INTRODUCED_109_,[X_INTRODUCED_60_,X_INTRODUCED_68_],-1);
constraint int_lin_le(X_INTRODUCED_109_,[X_INTRODUCED_61_,X_INTRODUCED_83_],-1);
constraint int_lin_le(X_INTRODUCED_109_,[X_INTRODUCED_61_,X_INTRODUCED_100_],-1);
constraint int_lin_le(X_INTRODUCED_109_,[X_INTRODUCED_62_,X_INTRODUCED_89_],-10);
constraint int_lin_le(X_INTRODUCED_109_,[X_INTRODUCED_63_,X_INTRODUCED_77_],-3);
constraint int_lin_le(X_INTRODUCED_109_,[X_INTRODUCED_63_,X_INTRODUCED_81_],-3);
constraint int_lin_le(X_INTRODUCED_109_,[X_INTRODUCED_64_,X_INTRODUCED_74_],-9);
constraint int_lin_le(X_INTRODUCED_109_,[X_INTRODUCED_64_,X_INTRODUCED_87_],-9);
constraint int_lin_le(X_INTRODUCED_109_,[X_INTRODUCED_64_,X_INTRODUCED_88_],-9);
constraint int_lin_le(X_INTRODUCED_109_,[X_INTRODUCED_65_,X_INTRODUCED_66_],-9);
constraint int_lin_le(X_INTRODUCED_109_,[X_INTRODUCED_65_,X_INTRODUCED_76_],-9);
constraint int_lin_le(X_INTRODUCED_109_,[X_INTRODUCED_66_,X_INTRODUCED_69_],-10);
constraint int_lin_le(X_INTRODUCED_109_,[X_INTRODUCED_66_,X_INTRODUCED_80_],-10);
constraint int_lin_le(X_INTRODUCED_109_,[X_INTRODUCED_67_,X_INTRODUCED_71_],-8);
constraint int_lin_le(X_INTRODUCED_109_,[X_INTRODUCED_68_,X_INTRODUCED_75_],-10);
constraint int_lin_le(X_INTRODUCED_109_,[X_INTRODUCED_68_,X_INTRODUCED_91_],-10);
constraint int_lin_le(X_INTRODUCED_109_,[X_INTRODUCED_68_,X_INTRODUCED_94_],-10);
constraint int_lin_le(X_INTRODUCED_109_,[X_INTRODUCED_69_,X_INTRODUCED_75_],-9);
constraint int_lin_le(X_INTRODUCED_109_,[X_INTRODUCED_69_,X_INTRODUCED_82_],-9);
constraint int_lin_le(X_INTRODUCED_109_,[X_INTRODUCED_70_,X_INTRODUCED_77_],-10);
constraint int_lin_le(X_INTRODUCED_109_,[X_INTRODUCED_70_,X_INTRODUCED_92_],-10);
constraint int_lin_le(X_INTRODUCED_109_,[X_INTRODUCED_70_,X_INTRODUCED_102_],-10);
constraint int_lin_le(X_INTRODUCED_109_,[X_INTRODUCED_71_,X_INTRODUCED_89_],-7);
constraint int_lin_le(X_INTRODUCED_109_,[X_INTRODUCED_72_,X_INTRODUCED_86_],-3);
constraint int_lin_le(X_INTRODUCED_109_,[X_INTRODUCED_73_,X_INTRODUCED_77_],-5);
constraint int_lin_le(X_INTRODUCED_109_,[X_INTRODUCED_73_,X_INTRODUCED_90_],-5);
constraint int_lin_le(X_INTRODUCED_109_,[X_INTRODUCED_74_,X_INTRODUCED_89_],-4);
constraint int_lin_le(X_INTRODUCED_109_,[X_INTRODUCED_75_,X_INTRODUCED_79_],-9);
constraint int_lin_le(X_INTRODUCED_109_,[X_INTRODUCED_76_,X_INTRODUCED_93_],-5);
constraint int_lin_le(X_INTRODUCED_109_,[X_INTRODUCED_76_,X_INTRODUCED_94_],-5);
constraint int_lin_le(X_INTRODUCED_109_,[X_INTRODUCED_77_,X_INTRODUCED_84_],-4);
constraint int_lin_le(X_INTRODUCED_109_,[X_INTRODUCED_77_,X_INTRODUCED_95_],-4);
constraint int_lin_le(X_INTRODUCED_109_,[X_INTRODUCED_78_,X_INTRODUCED_86_],-8);
constraint int_lin_le(X_INTRODUCED_109_,[X_INTRODUCED_78_,X_INTRODUCED_96_],-8);
constraint int_lin_le(X_INTRODUCED_109_,[X_INTRODUCED_79_,X_INTRODUCED_105_],-4);
constraint int_lin_le(X_INTRODUCED_109_,[X_INTRODUCED_80_,X_INTRODUCED_95_],-1);
constraint int_lin_le(X_INTRODUCED_109_,[X_INTRODUCED_81_,X_INTRODUCED_101_],-9);
constraint int_lin_le(X_INTRODUCED_109_,[X_INTRODUCED_82_,X_INTRODUCED_83_],-4);
constraint int_lin_le(X_INTRODUCED_109_,[X_INTRODUCED_82_,X_INTRODUCED_85_],-4);
constraint int_lin_le(X_INTRODUCED_109_,[X_INTRODUCED_83_,X_INTRODUCED_90_],-8);
constraint int_lin_le(X_INTRODUCED_109_,[X_INTRODUCED_83_,X_INTRODUCED_95_],-8);
constraint int_lin_le(X_INTRODUCED_109_,[X_INTRODUCED_83_,X_INTRODUCED_105_],-8);
constraint int_lin_le(X_INTRODUCED_109_,[X_INTRODUCED_84_,X_INTRODUCED_105_],-3);
constraint int_lin_le(X_INTRODUCED_109_,[X_INTRODUCED_85_,X_INTRODUCED_88_],-2);
constraint int_lin_le(X_INTRODUCED_109_,[X_INTRODUCED_85_,X_INTRODUCED_91_],-2);
constraint int_lin_le(X_INTRODUCED_109_,[X_INTRODUCED_85_,X_INTRODUCED_98_],-2);
constraint int_lin_le(X_INTRODUCED_109_,[X_INTRODUCED_86_,X_INTRODUCED_97_],-6);
constraint int_lin_le(X_INTRODUCED_109_,[X_INTRODUCED_87_,X_INTRODUCED_101_],-6);
constraint int_lin_le(X_INTRODUCED_109_,[X_INTRODUCED_88_,X_INTRODUCED_93_],-6);
constraint int_lin_le(X_INTRODUCED_109_,[X_INTRODUCED_88_,X_INTRODUCED_96_],-6);
constraint int_lin_le(X_INTRODUCED_109_,[X_INTRODUCED_89_,X_INTRODUCED_100_],-4);
constraint int_lin_le(X_INTRODUCED_109_,[X_INTRODUCED_90_,X_INTRODUCED_94_],-5);
constraint int_lin_le(X_INTRODUCED_109_,[X_INTRODUCED_91_,X_INTRODUCED_101_],-9);
constraint int_lin_le(X_INTRODUCED_109_,[X_INTRODUCED_92_,X_INTRODUCED_93_],-2);
constraint int_lin_le(X_INTRODUCED_109_,[X_INTRODUCED_92_,X_INTRODUCED_97_],-2);
constraint int_lin_le(X_INTRODUCED_109_,[X_INTRODUCED_92_,X_INTRODUCED_98_],-2);
constraint int_lin_le(X_INTRODUCED_109_,[X_INTRODUCED_93_,X_INTRODUCED_100_],-3);
constraint int_lin_le(X_INTRODUCED_109_,[X_INTRODUCED_94_,X_INTRODUCED_96_],-9);
constraint int_lin_le(X_INTRODUCED_109_,[X_INTRODUCED_95_,X_INTRODUCED_98_],-1);
constraint int_lin_le(X_INTRODUCED_109_,[X_INTRODUCED_96_,X_INTRODUCED_102_],-8);
constraint int_lin_le(X_INTRODUCED_109_,[X_INTRODUCED_97_,X_INTRODUCED_99_],-7);
constraint int_lin_le(X_INTRODUCED_109_,[X_INTRODUCED_98_,X_INTRODUCED_104_],-8);
constraint int_lin_le(X_INTRODUCED_109_,[X_INTRODUCED_99_,X_INTRODUCED_104_],-1);
constraint int_lin_le(X_INTRODUCED_109_,[X_INTRODUCED_100_,X_INTRODUCED_103_],-4);
constraint int_lin_le(X_INTRODUCED_109_,[X_INTRODUCED_101_,X_INTRODUCED_102_],-2);
constraint int_lin_le(X_INTRODUCED_109_,[X_INTRODUCED_102_,X_INTRODUCED_104_],-3);
constraint pumpkin_cumulative(X_INTRODUCED_198_,X_INTRODUCED_197_,X_INTRODUCED_196_,37);
constraint pumpkin_cumulative(X_INTRODUCED_201_,X_INTRODUCED_200_,X_INTRODUCED_199_,37);
constraint pumpkin_cumulative(X_INTRODUCED_204_,X_INTRODUCED_203_,X_INTRODUCED_202_,31);
constraint pumpkin_cumulative(X_INTRODUCED_207_,X_INTRODUCED_206_,X_INTRODUCED_205_,34);
constraint int_lin_le(X_INTRODUCED_210_,[X_INTRODUCED_103_,Objective],-1);
constraint int_lin_le(X_INTRODUCED_210_,[X_INTRODUCED_104_,Objective],-9);
constraint int_lin_le(X_INTRODUCED_210_,[X_INTRODUCED_105_,Objective],-8);
solve :: int_search(X_INTRODUCED_213_,smallest,indomain_min,complete) minimize Objective;
